networks/zoo_64_348/zoo_64_348.txt
Number of groups: 45.999999999644437
Flow 9: {2 1} {1 35} 
Flow 15: {2 8} {8 9} 
Flow 25: {3 1} {1 8} {8 21} {21 18} {18 14} 
Flow 40: {4 8} {8 23} {23 57} 
Flow 51: {24 22} 
Flow 52: {7 1} 
Flow 53: {8 1} 
Flow 84: {10 17} {17 18} {18 52} 
Flow 94: {11 20} {20 21} {21 55} 
Flow 104: {24 9} {9 43} 
Flow 109: {13 12} {12 24} {24 21} 
Flow 117: {14 16} {16 10} {10 44} 
Flow 124: {12 20} {20 19} {19 53} 
Flow 131: {14 18} {18 21} {21 23} 
Flow 141: {15 20} 
Flow 146: {24 26} 
Flow 151: {16 15} {15 24} {24 8} {8 42} 
Flow 155: {16 14} {14 12} {12 13} {13 47} 
Flow 165: {9 23} {23 25} {25 28} {28 62} 
Flow 170: {17 14} {14 15} {15 11} {11 45} 
Flow 181: {17 10} {10 16} {16 20} {20 26} 
Flow 185: {4 5} {5 39} 
Flow 200: {21 24} 
Flow 201: {21 9} {9 26} 
Flow 206: {19 11} {11 15} {15 14} 
Flow 208: {19 20} {20 16} {16 50} 
Flow 212: {20 22} {22 56} 
Flow 215: {20 9} {9 8} {8 4} {4 38} 
Flow 223: {20 12} {12 14} {14 48} 
Flow 231: {9 24} {24 58} 
Flow 237: {21 8} {8 6} {6 40} 
Flow 247: {18 17} {17 51} 
Flow 256: {20 30} {30 64} 
Flow 257: {22 24} 
Flow 264: {22 20} {20 15} {15 49} 
Flow 277: {23 9} {9 20} {20 11} 
Flow 294: {24 15} {15 16} 
Flow 306: {23 8} {8 24} {24 12} {12 46} 
Flow 317: {23 26} {26 60} 
Flow 320: {26 20} 
Flow 321: {26 9} {9 21} 
Flow 322: {26 24} 
Flow 329: {27 25} 
Flow 338: {28 25} {25 23} {23 21} 
Flow 347: {29 21} {21 20} 
Flow 348: {30 20} {20 54} 
Time taken running everything: 4 seconds
